clear
# -------------------- VARIABLES DEFINITION -----------------------
variable name string dump_integration_liggghts

# -------------------- INITIALISATION -----------------------------

units       si
dimension   3
#boundary	f	f   f
boundary	m	m	m
atom_style  granular
newton off

# -------------------- UNIVERS ------------------------------------
#region          univers block -0.01 0.02 -0.01 0.01 -0.01 0.0005 units box
#create_box      1 univers
#region		    mainbox block 0 0.010026607 0 0.0099597548 -1 0.00017071021 units box

read_data output_agdd.data 

fix zwalls all wall/gran model hertz tangential history primitive type 1 zplane 0


#fix		walls all wall/gran hooke/history &
#		4000.0 NULL 100.0 NULL 0.5 1 region mainbox
#fix		walls all wall/gran/region granular region mainbox

communicate single vel yes

fix 1 all nve/sphere
fix 2 all gravity 9.81 vector 0 0 -1

# -------------------- ATOMS ------------------------------------

fix 		m1 all property/global youngsModulus peratomtype 5.e6
fix 		m2 all property/global poissonsRatio peratomtype 0.45
fix 		m3 all property/global coefficientRestitution peratomtypepair 1 0.7
fix 		m4 all property/global coefficientFriction peratomtypepair 1 0.05

neighbor 0.0000000001 bin
neigh_modify 	delay 0 every 1 check yes page 100000 one 10000

pair_style gran model hertz tangential history
pair_coeff	* * 

# ------------------------ OUTPUT SETTINGS ------------------------
#compute csym all centro/atom fcc
#compute eng all pe/atom 
#compute eatoms all reduce sum c_eng
#compute strs all stress/atom

# -------------------- RUN --------------------------------------

timestep 0.0001

thermo_style    custom step cpu atoms 
thermo_modify   lost ignore
thermo 100

dump   ovito all custom 1000 ${name}.dump id type mass radius element xs ys zs 


run     1000  upto
