# ------------------------ INITIALIZATION ----------------------
clear
units 		metal
dimension	3
boundary	p	p	p
atom_style	sphere

# ----------------------- VARIABLES DEFINITION -----------------------




# ----------------------- ATOM DEFINITION -----------------------
lattice         fcc 1
region		    upper block 0 10 0 10 0 10
create_box	    1 upper

lattice 	    fcc 1 orient x 1 0 0 orient y 0 1 0 orient z 0 0 1
create_atoms	1 region upper 

# ------------------------ FORCE FIELDS -----------------------
pair_style	granular
pair_coeff * * hooke 1000.0 50.0 tangential linear_nohistory 1.0 0.4 damping mass_velocity

#---------------------------Settings----------------------------
#compute csym all centro/atom fcc
#compute eng all pe/atom 
#compute eatoms all reduce sum c_eng
#compute strs all stress/atom


# ----------------------- ASSIGN FIXES -----------------------
fix 1 all nve/sphere
fix 2 all gravity 1.0 chute 24.0

#----------------------Run Minimization-------------------------
reset_timestep	0
timestep 0.005
#thermo 10
#thermo_style custom step pe lx ly lz press pxx pyy pzz c_eatoms 
#dump 1 all custom 10 dump.comp.* id type xs ys zs c_csym c_eng c_strs[1] c_strs[2] c_strs[3]
#dump     1 all custom 250 dump.comp.* id type xs ys zs c_csym fx fy fz


dump     1 all custom 250 dump.comp.* id x y z 

#min_style cg
#minimize 1e-15 1e-15 5000 5000

######################################

# SIMULATION DONE
print "All done"
